Solving original (integer) problem with strategy gdp.hull_exact_conic_no_cholesky...
--- Job model.gms Start 02/16/26 02:59:12 52.2.0 d8e408be LEX-LEG x86 64bit/Linux
--- Applying:
    /package/gams/52.2/gmsprmun.txt
--- GAMS Parameters defined
    Input /local/scratch/a/sgusev/repos/k_means/data/gams_scip_gdp.hull_exact_conic_no_cholesky/no_mode/2026-02-16_02-59-11/original/model.gms
    Output /local/scratch/a/sgusev/repos/k_means/data/gams_scip_gdp.hull_exact_conic_no_cholesky/no_mode/2026-02-16_02-59-11/original/output.lst
    ScrDir /local/scratch/a/sgusev/repos/k_means/data/gams_scip_gdp.hull_exact_conic_no_cholesky/no_mode/2026-02-16_02-59-11/original/225a/
    SysDir /package/gams/52.2/
    CurDir /local/scratch/a/sgusev/repos/k_means/data/gams_scip_gdp.hull_exact_conic_no_cholesky/no_mode/2026-02-16_02-59-11/original/
    LogOption 3
    AppendLog 1
Licensee: David Bernal / SECQUOIA Research Group         G251008+0003Ac-GEN
          Purdue University, Davidson School of Chemical EngineeringDCE4838
          225a/gamslice.dat
          5a82958a-fbca-4a23
          node:66820903 mem:995 cores:48 ipport:54881 v:2                  
          Evaluation license: Not for commercial or production use
          The time-limited license stops working on : Jun 30, 2027
System information: 48 physical cores and 995 Gb physical memory detected
GAMS 52.2.0   Copyright (C) 1987-2025 GAMS Development. All rights reserved
--- Starting compilation
--- model.gms(3392) 2 Mb
--- $echo File /local/scratch/a/sgusev/repos/k_means/data/gams_scip_gdp.hull_exact_conic_no_cholesky/no_mode/2026-02-16_02-59-11/original/scip.opt
--- model.gms(4990) 2 Mb
--- Starting execution: elapsed 0:00:00.018
--- model.gms(3402) 3 Mb
--- Generating MINLP model GAMS_MODEL
--- model.gms(3406) 6 Mb
---   1,035 rows  496 columns  2,693 non-zeroes
---   684 nl-code  252 nl-non-zeroes
---   36 discrete-columns
--- Range statistics (absolute non-zero finite values)
--- RHS       [min, max] : [ 1.000E+00, 1.000E+00] - Zero values observed as well
--- Bound     [min, max] : [ 1.000E+00, 1.200E+02] - Zero values observed as well
--- Matrix    [min, max] : [ 1.669E-03, 1.200E+02] - Zero values observed as well
--- model.gms(3406) 4 Mb
--- Executing SCIP (Solvelink=5): elapsed 0:00:00.024

SCIP             52.2.0 d8e408be Dec 8, 2025           LEG x86 64bit/Linux    
SCIP version 9.2.4 (a94f778ac8)
Copyright (c) 2002-2025 Zuse Institute Berlin (ZIB)

External libraries: 
  CPLEX 22.1.2.0       Linear Programming Solver developed by IBM (www.cplex.com)
  CppAD 20180000.0     Algorithmic Differentiation of C++ algorithms developed by B. Bell (github.com/coin-or/CppAD)
  PaPILO 2.4.4         parallel presolve for integer and linear optimization (github.com/scipopt/papilo) (built with TBB) [GitHash: 7c826d50]
  Nauty 2.8.9          Computing Graph Automorphism Groups by Brendan D. McKay (users.cecs.anu.edu.au/~bdm/nauty)
  sassy 1.1            Symmetry preprocessor by Markus Anders (github.com/markusa4/sassy)
  Ipopt 3.14.19        Interior Point Optimizer developed by A. Waechter et.al. (github.com/coin-or/Ipopt)

reading option file /local/scratch/a/sgusev/repos/k_means/data/gams_scip_gdp.hull_exact_conic_no_cholesky/no_mode/2026-02-16_02-59-11/original/scip.opt
non-default parameter settings:
limits/time = 300
limits/gap = 1e-06
limits/absgap = 1e-10
lp/threads = 1
misc/printreason = FALSE
numerics/dualfeastol = 1e-06
parallel/maxnthreads = 1
nlpi/ipopt/linear_solver = "ma27"
nlpi/ipopt/linear_system_scaling = "mc19"

original problem has 495 variables (36 bin, 0 int, 459 cont) and 1034 constraints

all 1 solutions given by solution candidate storage are infeasible

presolving:
(round 1, fast)       12 del vars, 0 del conss, 0 add conss, 36 chg bounds, 0 chg sides, 0 chg coeffs, 0 upgd conss, 0 impls, 12 clqs
(round 2, fast)       12 del vars, 0 del conss, 0 add conss, 36 chg bounds, 12 chg sides, 0 chg coeffs, 0 upgd conss, 0 impls, 12 clqs
(round 3, exhaustive) 12 del vars, 0 del conss, 0 add conss, 36 chg bounds, 12 chg sides, 0 chg coeffs, 768 upgd conss, 0 impls, 12 clqs
   (0.0s) probing cycle finished: starting next cycle
   (0.0s) symmetry computation started: requiring (bin +, int +, cont +), (fixed: bin -, int -, cont -)
   (0.0s) no symmetry present (symcode time: 0.00)
presolving (4 rounds: 4 fast, 2 medium, 2 exhaustive):
 12 deleted vars, 0 deleted constraints, 0 added constraints, 36 tightened bounds, 0 added holes, 12 changed sides, 0 changed coefficients
 1656 implications, 12 cliques
presolved problem has 483 variables (36 bin, 0 int, 0 impl, 447 cont) and 1034 constraints
    756 constraints of type <varbound>
     12 constraints of type <setppc>
    230 constraints of type <linear>
     36 constraints of type <nonlinear>
Presolving Time: 0.02

 time | node  | left  |LP iter|LP it/n|mem/heur|mdpt |vars |cons |rows |cuts |sepa|confs|strbr|  dualbound   | primalbound  |  gap   | compl. 
  0.1s|     1 |     0 |   750 |     - |    10M |   0 | 735 |1034 |1646 |   0 |  0 |   0 |   0 | 0.000000e+00 |      --      |    Inf | unknown
o 0.1s|     1 |     0 |  1009 |     - |feaspump|   0 | 735 |1034 |1646 |   0 |  0 |   0 |   0 | 0.000000e+00 | 1.464029e+01 |    Inf | unknown
  0.2s|     1 |     0 |  1283 |     - |    11M |   0 | 735 |1034 |1835 | 189 |  1 |   0 |   0 | 0.000000e+00 | 1.464029e+01 |    Inf | unknown
  0.2s|     1 |     0 |  1283 |     - |    11M |   0 | 735 |1034 |1823 | 189 |  1 |   0 |   0 | 0.000000e+00 | 1.464029e+01 |    Inf | unknown
  0.2s|     1 |     0 |  1556 |     - |    11M |   0 | 735 |1034 |2003 | 369 |  2 |   0 |   0 | 0.000000e+00 | 1.464029e+01 |    Inf | unknown
  0.2s|     1 |     0 |  1828 |     - |    12M |   0 | 735 |1034 |2171 | 537 |  3 |   0 |   0 | 0.000000e+00 | 1.464029e+01 |    Inf | unknown
  0.3s|     1 |     0 |  2131 |     - |    12M |   0 | 735 |1034 |2350 | 716 |  4 |   0 |   0 | 0.000000e+00 | 1.464029e+01 |    Inf | unknown
  0.3s|     1 |     0 |  2380 |     - |    13M |   0 | 735 |1034 |2539 | 905 |  5 |   0 |   0 | 0.000000e+00 | 1.464029e+01 |    Inf | unknown
  0.4s|     1 |     0 |  2645 |     - |    15M |   0 | 735 |1034 |2722 |1088 |  6 |   0 |   0 | 0.000000e+00 | 1.464029e+01 |    Inf | unknown
  0.4s|     1 |     0 |  2930 |     - |    15M |   0 | 735 |1034 |2899 |1265 |  7 |   0 |   0 | 0.000000e+00 | 1.464029e+01 |    Inf | unknown
  0.5s|     1 |     0 |  3269 |     - |    16M |   0 | 735 |1034 |3078 |1444 |  8 |   0 |   0 | 0.000000e+00 | 1.464029e+01 |    Inf | unknown
  0.6s|     1 |     0 |  3656 |     - |    17M |   0 | 735 |1034 |3234 |1600 |  9 |   0 |   0 | 0.000000e+00 | 1.464029e+01 |    Inf | unknown
  0.6s|     1 |     0 |  3915 |     - |    17M |   0 | 735 |1034 |3374 |1740 | 10 |   0 |   0 | 0.000000e+00 | 1.464029e+01 |    Inf | unknown
  0.7s|     1 |     0 |  4152 |     - |    17M |   0 | 735 |1034 |2709 |1854 | 11 |   0 |   0 | 0.000000e+00 | 1.464029e+01 |    Inf | unknown
  0.7s|     1 |     0 |  4152 |     - |    17M |   0 | 735 |1022 |2709 |1854 | 11 |   0 |   0 | 0.000000e+00 | 1.464029e+01 |    Inf | unknown
 time | node  | left  |LP iter|LP it/n|mem/heur|mdpt |vars |cons |rows |cuts |sepa|confs|strbr|  dualbound   | primalbound  |  gap   | compl. 
  0.8s|     1 |     0 |  4376 |     - |    18M |   0 | 735 |1022 |2810 |1955 | 12 |   0 |   0 | 0.000000e+00 | 1.464029e+01 |    Inf | unknown
  0.8s|     1 |     0 |  4618 |     - |    18M |   0 | 735 |1022 |2894 |2039 | 13 |   0 |   0 | 0.000000e+00 | 1.464029e+01 |    Inf | unknown
  0.9s|     1 |     0 |  4819 |     - |    18M |   0 | 735 |1022 |2978 |2123 | 14 |   0 |   0 | 0.000000e+00 | 1.464029e+01 |    Inf | unknown
  0.9s|     1 |     0 |  5049 |     - |    19M |   0 | 735 |1022 |3036 |2181 | 15 |   0 |   0 | 0.000000e+00 | 1.464029e+01 |    Inf | unknown
  1.0s|     1 |     0 |  5328 |     - |    19M |   0 | 735 |1022 |3092 |2237 | 16 |   0 |   0 | 0.000000e+00 | 1.464029e+01 |    Inf | unknown
  1.0s|     1 |     0 |  5677 |     - |    19M |   0 | 735 |1022 |2119 |2285 | 17 |   0 |   0 | 0.000000e+00 | 1.464029e+01 |    Inf | unknown
  1.1s|     1 |     0 |  5899 |     - |    20M |   0 | 735 |1022 |2155 |2321 | 18 |   0 |   0 | 0.000000e+00 | 1.464029e+01 |    Inf | unknown
  1.1s|     1 |     0 |  6089 |     - |    20M |   0 | 735 |1022 |2187 |2353 | 19 |   0 |   0 | 0.000000e+00 | 1.464029e+01 |    Inf | unknown
  1.2s|     1 |     0 |  6297 |     - |    20M |   0 | 735 |1022 |2214 |2380 | 20 |   0 |   0 | 0.000000e+00 | 1.464029e+01 |    Inf | unknown
  1.2s|     1 |     0 |  6484 |     - |    20M |   0 | 735 |1022 |2249 |2415 | 21 |   0 |   0 | 0.000000e+00 | 1.464029e+01 |    Inf | unknown
  1.2s|     1 |     0 |  6829 |     - |    20M |   0 | 735 |1022 |2278 |2444 | 22 |   0 |   0 | 0.000000e+00 | 1.464029e+01 |    Inf | unknown
  2.1s|     1 |     0 |  7164 |     - |    20M |   0 | 735 |1022 |2278 |2444 | 22 |   0 |   3 | 0.000000e+00 | 1.464029e+01 |    Inf | unknown
  2.1s|     1 |     0 |  7491 |     - |    20M |   0 | 735 |1022 |2314 |2480 | 23 |   0 |   3 | 0.000000e+00 | 1.464029e+01 |    Inf | unknown
  2.1s|     1 |     0 |  7493 |     - |    20M |   0 | 735 |1022 |2315 |2481 | 24 |   0 |   3 | 0.000000e+00 | 1.464029e+01 |    Inf | unknown
  2.2s|     1 |     0 |  7493 |     - |    20M |   0 | 735 |1022 |2315 |2481 | 24 |   0 |   6 | 0.000000e+00 | 1.464029e+01 |    Inf | unknown
 time | node  | left  |LP iter|LP it/n|mem/heur|mdpt |vars |cons |rows |cuts |sepa|confs|strbr|  dualbound   | primalbound  |  gap   | compl. 
  2.3s|     1 |     0 |  7651 |     - |    20M |   0 | 735 |1022 |2335 |2501 | 25 |   0 |   6 | 0.000000e+00 | 1.464029e+01 |    Inf | unknown
  2.3s|     1 |     0 |  7828 |     - |    20M |   0 | 735 |1022 |2342 |2508 | 26 |   0 |   6 | 0.000000e+00 | 1.464029e+01 |    Inf | unknown
  2.4s|     1 |     0 |  7828 |     - |    20M |   0 | 735 |1022 |2342 |2508 | 26 |   0 |   9 | 0.000000e+00 | 1.464029e+01 |    Inf | unknown
  2.5s|     1 |     0 |  8123 |     - |    20M |   0 | 735 |1022 |2371 |2537 | 27 |   0 |   9 | 0.000000e+00 | 1.464029e+01 |    Inf | unknown
  2.5s|     1 |     0 |  8261 |     - |    21M |   0 | 735 |1022 |1541 |2539 | 28 |   0 |   9 | 0.000000e+00 | 1.464029e+01 |    Inf | unknown
  2.6s|     1 |     0 |  8261 |     - |    21M |   0 | 735 |1022 |1541 |2539 | 28 |   0 |  12 | 0.000000e+00 | 1.464029e+01 |    Inf | unknown
  2.6s|     1 |     0 |  8350 |     - |    21M |   0 | 735 |1022 |1558 |2556 | 29 |   0 |  12 | 0.000000e+00 | 1.464029e+01 |    Inf | unknown
  2.6s|     1 |     0 |  8365 |     - |    21M |   0 | 735 |1022 |1566 |2564 | 30 |   0 |  12 | 0.000000e+00 | 1.464029e+01 |    Inf | unknown
  2.7s|     1 |     0 |  8365 |     - |    21M |   0 | 735 |1022 |1566 |2564 | 30 |   0 |  16 | 0.000000e+00 | 1.464029e+01 |    Inf | unknown
  2.7s|     1 |     0 |  8680 |     - |    21M |   0 | 735 |1022 |1608 |2606 | 31 |   0 |  16 | 0.000000e+00 | 1.464029e+01 |    Inf | unknown
  2.7s|     1 |     0 |  8742 |     - |    21M |   0 | 735 |1022 |1612 |2610 | 32 |   0 |  16 | 0.000000e+00 | 1.464029e+01 |    Inf | unknown
  2.9s|     1 |     0 |  8742 |     - |    21M |   0 | 735 |1022 |1612 |2610 | 32 |   0 |  20 | 0.000000e+00 | 1.464029e+01 |    Inf | unknown
  2.9s|     1 |     0 |  9100 |     - |    21M |   0 | 735 |1022 |1710 |2708 | 33 |   0 |  20 | 0.000000e+00 | 1.464029e+01 |    Inf | unknown
  2.9s|     1 |     0 |  9193 |     - |    21M |   0 | 735 |1022 |1519 |2715 | 34 |   0 |  20 | 0.000000e+00 | 1.464029e+01 |    Inf | unknown
  3.0s|     1 |     0 |  9193 |     - |    21M |   0 | 735 |1022 |1519 |2715 | 34 |   0 |  23 | 0.000000e+00 | 1.464029e+01 |    Inf | unknown
 time | node  | left  |LP iter|LP it/n|mem/heur|mdpt |vars |cons |rows |cuts |sepa|confs|strbr|  dualbound   | primalbound  |  gap   | compl. 
  3.0s|     1 |     0 |  9510 |     - |    21M |   0 | 735 |1022 |1615 |2811 | 35 |   0 |  23 | 0.000000e+00 | 1.464029e+01 |    Inf | unknown
  3.1s|     1 |     0 |  9670 |     - |    21M |   0 | 735 |1022 |1624 |2820 | 36 |   0 |  23 | 0.000000e+00 | 1.464029e+01 |    Inf | unknown
  3.1s|     1 |     0 |  9670 |     - |    21M |   0 | 735 |1022 |1624 |2820 | 36 |   0 |  26 | 0.000000e+00 | 1.464029e+01 |    Inf | unknown
  3.2s|     1 |     0 | 10113 |     - |    21M |   0 | 735 |1022 |1755 |2951 | 37 |   0 |  26 | 0.000000e+00 | 1.464029e+01 |    Inf | unknown
  3.2s|     1 |     0 | 10201 |     - |    21M |   0 | 735 |1022 |1766 |2962 | 38 |   0 |  26 | 0.000000e+00 | 1.464029e+01 |    Inf | unknown
  3.2s|     1 |     0 | 10201 |     - |    21M |   0 | 735 |1022 |1766 |2962 | 38 |   0 |  29 | 0.000000e+00 | 1.464029e+01 |    Inf | unknown
  3.3s|     1 |     0 | 10585 |     - |    21M |   0 | 735 |1022 |1903 |3099 | 39 |   0 |  29 | 0.000000e+00 | 1.464029e+01 |    Inf | unknown
  3.3s|     1 |     0 | 10652 |     - |    21M |   0 | 735 |1022 |1770 |3105 | 40 |   0 |  29 | 0.000000e+00 | 1.464029e+01 |    Inf | unknown
  3.4s|     1 |     0 | 10652 |     - |    21M |   0 | 735 |1022 |1770 |3105 | 40 |   0 |  32 | 0.000000e+00 | 1.464029e+01 |    Inf | unknown
  3.5s|     1 |     0 | 10847 |     - |    21M |   0 | 735 |1022 |1873 |3208 | 41 |   0 |  32 | 0.000000e+00 | 1.464029e+01 |    Inf | unknown
  3.5s|     1 |     0 | 10970 |     - |    21M |   0 | 735 |1022 |1884 |3219 | 42 |   0 |  32 | 0.000000e+00 | 1.464029e+01 |    Inf | unknown
  3.5s|     1 |     2 | 10970 |     - |    21M |   0 | 735 |1022 |1884 |3219 | 42 |   0 |  32 | 0.000000e+00 | 1.464029e+01 |    Inf | unknown
d 8.9s|    50 |    43 | 50989 | 826.7 |adaptive|  13 | 735 |1033 |2113 |  18k|  9 |  33 | 148 | 0.000000e+00 | 1.415801e+01 |    Inf | unknown
d 9.1s|    52 |    42 | 54440 | 862.0 |fracdivi|  13 | 735 |1033 |2313 |  19k|  8 |  33 | 148 | 0.000000e+00 | 1.266040e+01 |    Inf | unknown
d10.1s|    62 |    52 | 69761 | 971.8 |linesear|  13 | 735 |1033 |2244 |  23k|  9 |  98 | 149 | 0.000000e+00 | 1.259988e+01 |    Inf | unknown
 time | node  | left  |LP iter|LP it/n|mem/heur|mdpt |vars |cons |rows |cuts |sepa|confs|strbr|  dualbound   | primalbound  |  gap   | compl. 
d10.9s|    72 |    57 | 81871 |1005.5 |fracdivi|  13 | 735 |1033 |2292 |  26k|  9 | 153 | 149 | 0.000000e+00 | 1.073124e+01 |    Inf | unknown
 13.1s|   100 |    85 |113963 |1045.3 |    37M |  13 | 735 |1042 |2425 |  34k|  5 | 208 | 152 | 7.972135e-02 | 1.073124e+01 |  Large | unknown
L18.3s|   172 |   156 |193688 |1071.4 |    gins|  13 | 735 |1065 |2343 |  54k|  7 | 366 | 152 | 4.578286e-01 | 1.055063e+01 |2204.49%|   8.04%
 20.1s|   200 |   184 |219750 |1051.6 |    49M |  13 | 735 |1071 |2596 |  62k|  6 | 397 | 152 | 9.651313e-01 | 1.055063e+01 | 993.18%|   8.97%
 27.8s|   300 |   282 |319662 |1034.1 |    78M |  13 | 735 |1093 |2670 |  91k|  5 | 485 | 152 | 2.214058e+00 | 1.055063e+01 | 376.53%|  11.82%
 36.1s|   400 |   378 |419916 |1026.2 |   115M |  13 | 735 |1097 |2862 | 119k|  5 | 579 | 152 | 2.742479e+00 | 1.055063e+01 | 284.71%|  14.24%
 44.1s|   500 |   476 |518375 |1017.8 |   145M |  14 | 735 |1097 |2959 | 146k|  5 | 656 | 152 | 3.204185e+00 | 1.055063e+01 | 229.28%|  15.99%
 52.0s|   600 |   574 |612416 |1004.9 |   167M |  14 | 735 |1097 |2676 | 173k|  6 | 736 | 152 | 3.615657e+00 | 1.055063e+01 | 191.80%|  17.52%
*52.5s|   610 |   582 |618782 | 998.9 |    LP  |  19 | 735 |1097 |3545 | 175k| 10 | 740 | 152 | 3.616682e+00 | 1.051023e+01 | 190.60%|  17.77%
 58.9s|   700 |   654 |689870 | 971.9 |   189M |  19 | 735 |1097 |3023 | 196k|  4 | 799 | 152 | 3.852608e+00 | 1.051023e+01 | 172.81%|  18.86%
 65.5s|   800 |   742 |761232 | 939.6 |   208M |  19 | 735 |1097 |3220 | 218k|  5 | 884 | 153 | 4.013692e+00 | 1.051023e+01 | 161.86%|  19.75%
 69.4s|   900 |   788 |804236 | 882.9 |   214M |  20 | 735 |1097 |3251 | 235k|  4 | 914 | 154 | 4.016206e+00 | 1.051023e+01 | 161.70%|  19.96%
 73.5s|  1000 |   818 |844222 | 834.6 |   219M |  20 | 735 |1097 |3247 | 250k|  0 | 938 | 154 | 4.141596e+00 | 1.051023e+01 | 153.77%|  20.25%
 78.1s|  1100 |   870 |892376 | 802.5 |   233M |  20 | 735 |1097 |2933 | 267k|  4 | 974 | 154 | 4.214903e+00 | 1.051023e+01 | 149.36%|  20.68%
 82.5s|  1200 |   914 |938698 | 774.2 |   239M |  20 | 735 |1097 |3208 | 284k|  5 |1014 | 154 | 4.279234e+00 | 1.051023e+01 | 145.61%|  21.11%
 time | node  | left  |LP iter|LP it/n|mem/heur|mdpt |vars |cons |rows |cuts |sepa|confs|strbr|  dualbound   | primalbound  |  gap   | compl. 
 86.6s|  1300 |   956 |985817 | 750.8 |   247M |  20 | 735 |1097 |2927 | 301k|  1 |1048 | 154 | 4.302090e+00 | 1.051023e+01 | 144.31%|  21.60%
 90.8s|  1400 |   994 |  1026k| 726.6 |   256M |  20 | 735 |1097 |3082 | 316k|  5 |1077 | 154 | 4.348124e+00 | 1.051023e+01 | 141.72%|  21.88%
 95.3s|  1500 |  1038 |  1072k| 708.6 |   267M |  20 | 735 |1097 |3301 | 333k|  5 |1109 | 154 | 4.377130e+00 | 1.051023e+01 | 140.12%|  22.46%
 99.1s|  1600 |  1058 |  1110k| 687.8 |   272M |  20 | 735 |1097 |2972 | 347k|  0 |1138 | 157 | 4.430462e+00 | 1.051023e+01 | 137.23%|  22.83%
  102s|  1700 |  1074 |  1145k| 668.3 |   276M |  20 | 735 |1097 |2740 | 361k|  1 |1171 | 160 | 4.498341e+00 | 1.051023e+01 | 133.65%|  23.19%
  106s|  1800 |  1088 |  1181k| 651.0 |   283M |  20 | 735 |1097 |2889 | 374k|  5 |1189 | 160 | 4.560857e+00 | 1.051023e+01 | 130.44%|  23.81%
  111s|  1900 |  1122 |  1224k| 639.1 |   292M |  20 | 735 |1097 |3176 | 389k|  0 |1225 | 162 | 4.596918e+00 | 1.051023e+01 | 128.64%|  24.30%
  114s|  2000 |  1142 |  1260k| 625.1 |   305M |  20 | 735 |1097 |3118 | 403k|  0 |1255 | 166 | 4.625160e+00 | 1.051023e+01 | 127.24%|  24.61%
  119s|  2100 |  1170 |  1305k| 617.0 |   311M |  20 | 735 |1097 |2860 | 419k|  5 |1287 | 170 | 4.651739e+00 | 1.051023e+01 | 125.94%|  25.09%
  122s|  2200 |  1186 |  1341k| 605.4 |   314M |  20 | 735 |1097 |2718 | 433k|  6 |1306 | 170 | 4.681460e+00 | 1.051023e+01 | 124.51%|  25.43%
  126s|  2300 |  1212 |  1382k| 596.8 |   320M |  20 | 735 |1097 |3323 | 447k|  0 |1339 | 170 | 4.744214e+00 | 1.051023e+01 | 121.54%|  25.79%
  131s|  2400 |  1240 |  1427k| 590.5 |   328M |  20 | 735 |1097 |4600 | 463k|  1 |1371 | 170 | 4.767920e+00 | 1.051023e+01 | 120.44%|  26.41%
  135s|  2500 |  1266 |  1469k| 583.8 |   337M |  20 | 735 |1097 |3546 | 478k|  5 |1402 | 170 | 4.803146e+00 | 1.051023e+01 | 118.82%|  26.89%
  139s|  2600 |  1290 |  1510k| 577.3 |   347M |  20 | 735 |1097 |2885 | 493k| 12 |1433 | 171 | 4.845826e+00 | 1.051023e+01 | 116.89%|  27.64%
  144s|  2700 |  1326 |  1556k| 572.6 |   354M |  20 | 735 |1097 |3154 | 509k|  1 |1463 | 171 | 4.857572e+00 | 1.051023e+01 | 116.37%|  27.85%
 time | node  | left  |LP iter|LP it/n|mem/heur|mdpt |vars |cons |rows |cuts |sepa|confs|strbr|  dualbound   | primalbound  |  gap   | compl. 
  148s|  2800 |  1356 |  1596k| 566.5 |   359M |  20 | 735 |1097 |3016 | 524k|  5 |1486 | 171 | 4.879563e+00 | 1.051023e+01 | 115.39%|  28.38%
  152s|  2900 |  1372 |  1632k| 559.6 |   363M |  20 | 735 |1097 |2838 | 538k|  1 |1518 | 171 | 4.937099e+00 | 1.051023e+01 | 112.88%|  28.93%
  156s|  3000 |  1404 |  1674k| 554.9 |   369M |  20 | 735 |1097 |3295 | 553k|  0 |1547 | 172 | 5.039323e+00 | 1.051023e+01 | 108.56%|  29.33%
  160s|  3100 |  1420 |  1711k| 549.0 |   372M |  20 | 735 |1097 |2868 | 567k|  9 |1570 | 172 | 5.080085e+00 | 1.051023e+01 | 106.89%|  29.81%
  164s|  3200 |  1454 |  1753k| 544.8 |   380M |  20 | 735 |1097 |2648 | 582k|  0 |1600 | 173 | 5.083988e+00 | 1.051023e+01 | 106.73%|  30.15%
  169s|  3300 |  1484 |  1796k| 541.4 |   389M |  20 | 735 |1097 |3146 | 598k|  4 |1625 | 176 | 5.144919e+00 | 1.051023e+01 | 104.28%|  30.38%
  172s|  3400 |  1500 |  1831k| 535.8 |   395M |  20 | 735 |1097 |3440 | 611k|  5 |1647 | 176 | 5.144919e+00 | 1.051023e+01 | 104.28%|  30.75%
  176s|  3500 |  1506 |  1863k| 529.6 |   397M |  20 | 735 |1097 |3124 | 622k|  5 |1669 | 178 | 5.156107e+00 | 1.051023e+01 | 103.84%|  30.93%
  179s|  3600 |  1512 |  1894k| 523.5 |   400M |  20 | 735 |1097 |3029 | 634k|  5 |1686 | 178 | 5.156107e+00 | 1.051023e+01 | 103.84%|  31.21%
  183s|  3700 |  1520 |  1927k| 518.3 |   403M |  20 | 735 |1097 |3091 | 647k|  4 |1709 | 178 | 5.158165e+00 | 1.051023e+01 | 103.76%|  31.75%
  186s|  3800 |  1534 |  1963k| 514.0 |   409M |  20 | 735 |1097 |2904 | 660k|  6 |1726 | 178 | 5.185082e+00 | 1.051023e+01 | 102.70%|  32.07%
  191s|  3900 |  1572 |  2007k| 512.1 |   415M |  20 | 735 |1097 |3028 | 676k|  5 |1757 | 178 | 5.237690e+00 | 1.051023e+01 | 100.67%|  32.48%
  195s|  4000 |  1584 |  2041k| 508.0 |   419M |  20 | 735 |1097 |2982 | 688k|  6 |1783 | 179 | 5.310394e+00 | 1.051023e+01 |  97.92%|  32.73%
  198s|  4100 |  1600 |  2076k| 504.0 |   421M |  20 | 735 |1097 |3069 | 701k|  1 |1807 | 179 | 5.340625e+00 | 1.051023e+01 |  96.80%|  33.37%
  203s|  4200 |  1636 |  2121k| 502.8 |   425M |  20 | 735 |1097 |3311 | 717k|  6 |1839 | 179 | 5.375284e+00 | 1.051023e+01 |  95.53%|  33.75%
 time | node  | left  |LP iter|LP it/n|mem/heur|mdpt |vars |cons |rows |cuts |sepa|confs|strbr|  dualbound   | primalbound  |  gap   | compl. 
  207s|  4300 |  1658 |  2161k| 500.4 |   434M |  20 | 735 |1097 |2763 | 731k|  6 |1864 | 180 | 5.409618e+00 | 1.051023e+01 |  94.29%|  34.29%
  211s|  4400 |  1680 |  2202k| 498.2 |   437M |  20 | 735 |1097 |2859 | 745k|  5 |1891 | 180 | 5.432749e+00 | 1.051023e+01 |  93.46%|  34.61%
  215s|  4500 |  1702 |  2241k| 496.0 |   441M |  20 | 735 |1097 |3007 | 760k|  6 |1917 | 180 | 5.484939e+00 | 1.051023e+01 |  91.62%|  35.32%
  220s|  4600 |  1724 |  2282k| 494.0 |   445M |  20 | 735 |1097 |3202 | 774k|  0 |1944 | 180 | 5.519982e+00 | 1.051023e+01 |  90.40%|  35.75%
  224s|  4700 |  1742 |  2322k| 492.0 |   448M |  20 | 735 |1097 |2826 | 788k|  0 |1970 | 180 | 5.557969e+00 | 1.051023e+01 |  89.10%|  36.05%
  228s|  4800 |  1740 |  2355k| 488.5 |   449M |  20 | 735 |1097 |3076 | 800k|  1 |1987 | 180 | 5.600960e+00 | 1.051023e+01 |  87.65%|  36.30%
  232s|  4900 |  1750 |  2390k| 485.8 |   452M |  20 | 735 |1097 |2971 | 812k|  6 |2009 | 181 | 5.608276e+00 | 1.051023e+01 |  87.41%|  36.76%
  235s|  5000 |  1754 |  2421k| 482.3 |   452M |  20 | 735 |1097 |2817 | 823k|  4 |2023 | 181 | 5.636436e+00 | 1.051023e+01 |  86.47%|  37.07%
  239s|  5100 |  1772 |  2460k| 480.5 |   459M |  20 | 735 |1097 |3102 | 837k|  5 |2051 | 182 | 5.671678e+00 | 1.051023e+01 |  85.31%|  37.43%
  244s|  5200 |  1788 |  2497k| 478.4 |   463M |  20 | 735 |1097 |2719 | 850k|  4 |2072 | 183 | 5.697381e+00 | 1.051023e+01 |  84.47%|  37.74%
  247s|  5300 |  1794 |  2530k| 475.6 |   474M |  20 | 735 |1097 |4586 | 862k|  1 |2087 | 183 | 5.697381e+00 | 1.051023e+01 |  84.47%|  38.06%
  251s|  5400 |  1808 |  2566k| 473.5 |   478M |  20 | 735 |1097 |3060 | 875k|  5 |2104 | 183 | 5.729188e+00 | 1.051023e+01 |  83.45%|  38.65%
  255s|  5500 |  1800 |  2595k| 470.1 |   484M |  20 | 735 |1097 |3953 | 885k|  0 |2122 | 183 | 5.731364e+00 | 1.051023e+01 |  83.38%|  39.01%
  258s|  5600 |  1812 |  2629k| 467.8 |   485M |  20 | 735 |1097 |4214 | 897k|  5 |2148 | 183 | 5.758538e+00 | 1.051023e+01 |  82.52%|  39.31%
  262s|  5700 |  1824 |  2663k| 465.6 |   488M |  20 | 735 |1097 |3041 | 909k|  5 |2164 | 183 | 5.800945e+00 | 1.051023e+01 |  81.18%|  39.69%
 time | node  | left  |LP iter|LP it/n|mem/heur|mdpt |vars |cons |rows |cuts |sepa|confs|strbr|  dualbound   | primalbound  |  gap   | compl. 
  265s|  5800 |  1830 |  2695k| 463.0 |   489M |  20 | 735 |1097 |3227 | 922k|  5 |2186 | 183 | 5.830533e+00 | 1.051023e+01 |  80.26%|  39.87%
  269s|  5900 |  1834 |  2728k| 460.7 |   489M |  20 | 735 |1097 |2925 | 933k|  4 |2209 | 184 | 5.914973e+00 | 1.051023e+01 |  77.69%|  40.23%
  273s|  6000 |  1836 |  2761k| 458.6 |   491M |  20 | 735 |1097 |3088 | 945k|  0 |2228 | 184 | 5.938327e+00 | 1.051023e+01 |  76.99%|  40.56%
  276s|  6100 |  1846 |  2796k| 456.8 |   495M |  20 | 735 |1097 |2812 | 957k|  0 |2249 | 184 | 5.975928e+00 | 1.051023e+01 |  75.88%|  41.06%
  280s|  6200 |  1864 |  2834k| 455.5 |   500M |  20 | 735 |1097 |2957 | 971k|  5 |2273 | 186 | 6.040154e+00 | 1.051023e+01 |  74.01%|  41.40%
  284s|  6300 |  1862 |  2866k| 453.5 |   500M |  20 | 735 |1097 |2923 | 982k|  6 |2295 | 186 | 6.056341e+00 | 1.051023e+01 |  73.54%|  41.78%
  288s|  6400 |  1872 |  2906k| 452.6 |   503M |  20 | 735 |1097 |3111 | 996k|  1 |2323 | 186 | 6.096785e+00 | 1.051023e+01 |  72.39%|  42.12%
  291s|  6500 |  1882 |  2940k| 450.8 |   503M |  20 | 735 |1097 |3024 |1009k|  0 |2340 | 190 | 6.116618e+00 | 1.051023e+01 |  71.83%|  42.47%
  295s|  6600 |  1892 |  2972k| 448.9 |   506M |  20 | 735 |1097 |2768 |1020k|  1 |2359 | 190 | 6.143669e+00 | 1.051023e+01 |  71.07%|  42.77%
  298s|  6700 |  1896 |  3009k| 447.6 |   510M |  20 | 735 |1097 |2923 |1034k|  0 |2382 | 192 | 6.175249e+00 | 1.051023e+01 |  70.20%|  43.21%

SCIP Status        : solving was interrupted [time limit reached]
Solving Time (sec) : 300.00
Solving Nodes      : 6755
Primal Bound       : +1.05102299821379e+01 (11 solutions)
Dual Bound         : +6.18812130916754e+00
Gap                : 69.85 %


--- Reading solution for model GAMS_MODEL
***
*** Solver did not provide marginals for model GAMS_MODEL
***
--- Executing after solve: elapsed 0:05:00.386
--- model.gms(3409) 4 Mb
--- model.gms(4990) 6 Mb
--- Putfile results /local/scratch/a/sgusev/repos/k_means/data/gams_scip_gdp.hull_exact_conic_no_cholesky/no_mode/2026-02-16_02-59-11/original/results.dat
--- Putfile statresults /local/scratch/a/sgusev/repos/k_means/data/gams_scip_gdp.hull_exact_conic_no_cholesky/no_mode/2026-02-16_02-59-11/original/resultsstat.dat
*** Status: Normal completion
--- Job model.gms Stop 02/16/26 03:04:12 elapsed 0:05:00.389
Original problem solved. Time taken: 301.0023338794708 seconds
Original objective value: 10.510229982137934
